(set-logic ALL)
(declare-fun var0 () String)
(assert (str.in_re var0 (re.++ (re.+ (re.+ (str.to_re "000"))) (re.++ (re.+ (re.* (str.to_re "11"))) (re.++ (re.+ (re.+ (str.to_re "222"))) (re.++ (re.+ (re.union (str.to_re "3") (str.to_re "4"))) (re.++ (re.+ (re.* (str.to_re "55"))) (re.++ (re.+ (re.* (str.to_re "6"))) (re.++ (re.+ (re.* (str.to_re "7"))) (re.++ (re.* (re.* (str.to_re "8"))) (re.++ (re.+ (re.+ (str.to_re "99"))) (re.++ (re.* (re.union (str.to_re "a") (str.to_re "bb"))) (re.++ (re.union (re.union (str.to_re "c") (str.to_re "ddd")) (re.union (str.to_re "eee") (str.to_re "fff"))) (re.++ (re.* (re.* (str.to_re "gg"))) (re.++ (re.+ (re.+ (str.to_re "hh"))) (re.++ (re.+ (re.+ (str.to_re "i"))) (re.++ (re.+ (re.+ (str.to_re "jjj"))) (re.++ (re.* (re.union (str.to_re "k") (str.to_re "lll"))) (re.++ (re.* (re.union (str.to_re "mmm") (str.to_re "n"))) (re.++ (re.* (re.union (str.to_re "o") (str.to_re "p"))) (re.++ (re.* (re.* (str.to_re "qq"))) (re.++ (re.* (re.* (str.to_re "r"))) (re.++ (re.union (re.+ (str.to_re "s")) (re.+ (str.to_re "tt"))) (re.++ (re.union (re.+ (str.to_re "uuu")) (re.+ (str.to_re "v"))) (re.++ (re.* (re.+ (str.to_re "ww"))) (re.++ (re.+ (re.+ (str.to_re "xx"))) (re.++ (re.* (re.* (str.to_re "yy"))) (re.++ (re.* (re.union (str.to_re "zzz") (str.to_re "AAA"))) (re.++ (re.* (re.union (str.to_re "BBB") (str.to_re "C"))) (re.++ (re.union (re.+ (str.to_re "D")) (re.+ (str.to_re "E"))) (re.++ (re.+ (re.union (str.to_re "F") (str.to_re "G"))) (re.++ (re.union (re.* (str.to_re "HH")) (re.* (str.to_re "II"))) (re.++ (re.* (re.+ (str.to_re "JJ"))) (re.++ (re.union (re.union (str.to_re "KKK") (str.to_re "LL")) (re.union (str.to_re "M") (str.to_re "NNN"))) (re.++ (re.union (re.union (str.to_re "OO") (str.to_re "PPP")) (re.union (str.to_re "QQQ") (str.to_re "RRR"))) (re.++ (re.union (re.+ (str.to_re "SSS")) (re.+ (str.to_re "T"))) (re.++ (re.union (re.* (str.to_re "U")) (re.* (str.to_re "VVV"))) (re.++ (re.* (re.+ (str.to_re "WWW"))) (re.union (re.* (str.to_re "XX")) (re.* (str.to_re "YYY")))))))))))))))))))))))))))))))))))))))))
(check-sat)